(set-logic QF_UF)
(declare-fun A0 () Bool)
(declare-fun A1 () Bool)
(declare-fun A2 () Bool)
(declare-fun A3 () Bool)
(declare-fun A4 () Bool)
(declare-fun A5 () Bool)
(declare-fun A6 () Bool)
(declare-fun A7 () Bool)
(declare-fun A8 () Bool)
(declare-fun A9 () Bool)
(declare-fun A10 () Bool)
(declare-fun A11 () Bool)
(declare-fun A12 () Bool)
(declare-fun A13 () Bool)
(declare-fun A14 () Bool)
(declare-fun A15 () Bool)
(declare-fun A16 () Bool)
(declare-fun A17 () Bool)
(declare-fun A18 () Bool)
(declare-fun A19 () Bool)
(declare-fun A20 () Bool)
(declare-fun A21 () Bool)
(declare-fun A22 () Bool)
(declare-fun A23 () Bool)
(declare-fun A24 () Bool)
(assert (let ((.def_0 (not A15))) (let ((.def_1 (and .def_0 A11))) (let ((.def_2 (not .def_1))) (let ((.def_3 (not A21))) (let ((.def_4 (or .def_3 A3))) (let ((.def_5 (or .def_4 .def_2))) (let ((.def_6 (not A17))) (let ((.def_7 (and .def_6 .def_0))) (let ((.def_8 (and A15 A24))) (let ((.def_9 (not .def_8))) (let ((.def_10 (and .def_9 .def_7))) (let ((.def_11 (and .def_10 .def_5))) (let ((.def_12 (not .def_11))) (let ((.def_13 (not A11))) (let ((.def_14 (or .def_13 A6))) (let ((.def_15 (not .def_14))) (let ((.def_16 (and A22 A12))) (let ((.def_17 (not .def_16))) (let ((.def_18 (and .def_17 .def_15))) (let ((.def_19 (not .def_18))) (let ((.def_20 (not A22))) (let ((.def_21 (and .def_6 .def_20))) (let ((.def_22 (not A14))) (let ((.def_23 (not A18))) (let ((.def_24 (or .def_23 .def_22))) (let ((.def_25 (not .def_24))) (let ((.def_26 (or .def_25 .def_21))) (let ((.def_27 (not .def_26))) (let ((.def_28 (or .def_27 .def_19))) (let ((.def_29 (= .def_28 .def_12))) (let ((.def_30 (not A1))) (let ((.def_31 (= A16 .def_30))) (let ((.def_32 (not A13))) (let ((.def_33 (or A15 .def_32))) (let ((.def_34 (not .def_33))) (let ((.def_35 (and .def_34 .def_31))) (let ((.def_36 (and A23 A20))) (let ((.def_37 (not A23))) (let ((.def_38 (and .def_37 A7))) (let ((.def_39 (not .def_38))) (let ((.def_40 (and .def_39 .def_36))) (let ((.def_41 (or .def_40 .def_35))) (let ((.def_42 (not A20))) (let ((.def_43 (or A22 .def_42))) (let ((.def_44 (not .def_43))) (let ((.def_45 (and A17 A23))) (let ((.def_46 (and .def_45 .def_44))) (let ((.def_47 (not .def_46))) (let ((.def_48 (or A14 A10))) (let ((.def_49 (not A2))) (let ((.def_50 (or .def_49 .def_32))) (let ((.def_51 (= .def_50 .def_48))) (let ((.def_52 (and .def_51 .def_47))) (let ((.def_53 (not .def_52))) (let ((.def_54 (and .def_53 .def_41))) (let ((.def_55 (and .def_54 .def_29))) (let ((.def_56 (not A5))) (let ((.def_57 (and A0 .def_56))) (let ((.def_58 (or .def_32 A14))) (let ((.def_59 (not .def_58))) (let ((.def_60 (or .def_59 .def_57))) (let ((.def_61 (not .def_60))) (let ((.def_62 (not A12))) (let ((.def_63 (or .def_62 A21))) (let ((.def_64 (not .def_63))) (let ((.def_65 (or .def_56 A11))) (let ((.def_66 (not .def_65))) (let ((.def_67 (and .def_66 .def_64))) (let ((.def_68 (not .def_67))) (let ((.def_69 (and .def_68 .def_61))) (let ((.def_70 (not .def_69))) (let ((.def_71 (not A3))) (let ((.def_72 (not A8))) (let ((.def_73 (or .def_72 .def_71))) (let ((.def_74 (not A9))) (let ((.def_75 (or A4 .def_74))) (let ((.def_76 (and .def_75 .def_73))) (let ((.def_77 (not .def_76))) (let ((.def_78 (not A16))) (let ((.def_79 (= .def_78 .def_72))) (let ((.def_80 (not .def_79))) (let ((.def_81 (and .def_20 .def_6))) (let ((.def_82 (and .def_81 .def_80))) (let ((.def_83 (not .def_82))) (let ((.def_84 (or .def_83 .def_77))) (let ((.def_85 (and .def_84 .def_70))) (let ((.def_86 (not .def_85))) (let ((.def_87 (and A19 .def_62))) (let ((.def_88 (and A22 A0))) (let ((.def_89 (not .def_88))) (let ((.def_90 (and .def_89 .def_87))) (let ((.def_91 (or .def_30 .def_72))) (let ((.def_92 (not .def_91))) (let ((.def_93 (and .def_71 .def_20))) (let ((.def_94 (= .def_93 .def_92))) (let ((.def_95 (not .def_94))) (let ((.def_96 (and .def_95 .def_90))) (let ((.def_97 (or A5 A4))) (let ((.def_98 (not .def_97))) (let ((.def_99 (not A4))) (let ((.def_100 (not A6))) (let ((.def_101 (and .def_100 .def_99))) (let ((.def_102 (not .def_101))) (let ((.def_103 (or .def_102 .def_98))) (let ((.def_104 (not .def_103))) (let ((.def_105 (or .def_32 A17))) (let ((.def_106 (or .def_72 .def_0))) (let ((.def_107 (and .def_106 .def_105))) (let ((.def_108 (not .def_107))) (let ((.def_109 (or .def_108 .def_104))) (let ((.def_110 (or .def_109 .def_96))) (let ((.def_111 (not .def_110))) (let ((.def_112 (and .def_111 .def_86))) (let ((.def_113 (not .def_112))) (let ((.def_114 (or .def_113 .def_55))) (let ((.def_115 (not .def_114))) .def_115)))))))))))))))))))))))))))))))))))))))))))))))))))))))))))))))))))))))))))))))))))))))))))))))))))))))))))))))))))))
(check-sat)
